experiments/knapsack_bounded/knapsack_bounded_30_7.mps
NAME
ROWS
 N  OBJ
 L  c1
 L  c2
 L  c3
 L  c4
 L  c5
 L  c6
 L  c7
 L  c8
 L  c9
 L  c10
 L  c11
 L  c12
 L  c13
 L  c14
 L  c15
 L  c16
 L  c17
 L  c18
 L  c19
 L  c20
 L  c21
 L  c22
 L  c23
 L  c24
 L  c25
 L  c26
 L  c27
 L  c28
 L  c29
 L  c30
 L  c31
COLUMNS
    MARKER    'MARKER'                 'INTORG'
    x[1]      c1        758
    x[1]      c2        1
    x[1]      OBJ       -268
    x[2]      c1        921
    x[2]      c3        1
    x[2]      OBJ       -845
    x[3]      c1        139
    x[3]      c4        1
    x[3]      OBJ       -788
    x[4]      c1        922
    x[4]      c5        1
    x[4]      OBJ       -115
    x[5]      c1        168
    x[5]      c6        1
    x[5]      OBJ       -43
    x[6]      c1        533
    x[6]      c7        1
    x[6]      OBJ       -907
    x[7]      c1        394
    x[7]      c8        1
    x[7]      OBJ       -448
    x[8]      c1        518
    x[8]      c9        1
    x[8]      OBJ       -489
    x[9]      c1        73
    x[9]      c10       1
    x[9]      OBJ       -409
    x[10]     c1        219
    x[10]     c11       1
    x[10]     OBJ       -384
    x[11]     c1        910
    x[11]     c12       1
    x[11]     OBJ       -293
    x[12]     c1        270
    x[12]     c13       1
    x[12]     OBJ       -483
    x[13]     c1        12
    x[13]     c14       1
    x[13]     OBJ       -7
    x[14]     c1        518
    x[14]     c15       1
    x[14]     OBJ       -651
    x[15]     c1        561
    x[15]     c16       1
    x[15]     OBJ       -243
    x[16]     c1        15
    x[16]     c17       1
    x[16]     OBJ       -769
    x[17]     c1        400
    x[17]     c18       1
    x[17]     OBJ       -572
    x[18]     c1        303
    x[18]     c19       1
    x[18]     OBJ       -496
    x[19]     c1        644
    x[19]     c20       1
    x[19]     OBJ       -913
    x[20]     c1        364
    x[20]     c21       1
    x[20]     OBJ       -899
    x[21]     c1        151
    x[21]     c22       1
    x[21]     OBJ       -132
    x[22]     c1        342
    x[22]     c23       1
    x[22]     OBJ       -686
    x[23]     c1        813
    x[23]     c24       1
    x[23]     OBJ       -301
    x[24]     c1        665
    x[24]     c25       1
    x[24]     OBJ       -252
    x[25]     c1        638
    x[25]     c26       1
    x[25]     OBJ       -672
    x[26]     c1        620
    x[26]     c27       1
    x[26]     OBJ       -111
    x[27]     c1        299
    x[27]     c28       1
    x[27]     OBJ       -423
    x[28]     c1        336
    x[28]     c29       1
    x[28]     OBJ       -958
    x[29]     c1        470
    x[29]     c30       1
    x[29]     OBJ       -531
    x[30]     c1        516
    x[30]     c31       1
    x[30]     OBJ       -70
    MARKER    'MARKER'                 'INTEND'
RHS
    rhs       c1        6746
    rhs       c2        9
    rhs       c3        8
    rhs       c4        9
    rhs       c5        1
    rhs       c6        7
    rhs       c7        1
    rhs       c8        2
    rhs       c9        8
    rhs       c10       5
    rhs       c11       7
    rhs       c12       2
    rhs       c13       4
    rhs       c14       6
    rhs       c15       2
    rhs       c16       8
    rhs       c17       3
    rhs       c18       4
    rhs       c19       9
    rhs       c20       7
    rhs       c21       3
    rhs       c22       2
    rhs       c23       6
    rhs       c24       7
    rhs       c25       7
    rhs       c26       3
    rhs       c27       4
    rhs       c28       10
    rhs       c29       9
    rhs       c30       6
    rhs       c31       6
RANGES
BOUNDS
 LO bounds    x[1]      0
 PL bounds    x[1]
 LO bounds    x[2]      0
 PL bounds    x[2]
 LO bounds    x[3]      0
 PL bounds    x[3]
 LO bounds    x[4]      0
 PL bounds    x[4]
 LO bounds    x[5]      0
 PL bounds    x[5]
 LO bounds    x[6]      0
 PL bounds    x[6]
 LO bounds    x[7]      0
 PL bounds    x[7]
 LO bounds    x[8]      0
 PL bounds    x[8]
 LO bounds    x[9]      0
 PL bounds    x[9]
 LO bounds    x[10]     0
 PL bounds    x[10]
 LO bounds    x[11]     0
 PL bounds    x[11]
 LO bounds    x[12]     0
 PL bounds    x[12]
 LO bounds    x[13]     0
 PL bounds    x[13]
 LO bounds    x[14]     0
 PL bounds    x[14]
 LO bounds    x[15]     0
 PL bounds    x[15]
 LO bounds    x[16]     0
 PL bounds    x[16]
 LO bounds    x[17]     0
 PL bounds    x[17]
 LO bounds    x[18]     0
 PL bounds    x[18]
 LO bounds    x[19]     0
 PL bounds    x[19]
 LO bounds    x[20]     0
 PL bounds    x[20]
 LO bounds    x[21]     0
 PL bounds    x[21]
 LO bounds    x[22]     0
 PL bounds    x[22]
 LO bounds    x[23]     0
 PL bounds    x[23]
 LO bounds    x[24]     0
 PL bounds    x[24]
 LO bounds    x[25]     0
 PL bounds    x[25]
 LO bounds    x[26]     0
 PL bounds    x[26]
 LO bounds    x[27]     0
 PL bounds    x[27]
 LO bounds    x[28]     0
 PL bounds    x[28]
 LO bounds    x[29]     0
 PL bounds    x[29]
 LO bounds    x[30]     0
 PL bounds    x[30]
ENDATA
